125
[25,26,27,28,29,30,31,32,33,34,35,36,37,38,39,40,41,42,43,44,45,46,47,48,49,50,51,52,53,54,55,56,57,58,59,60,61,62,63,64,65,66,67,68,69,70,71,72,73,74,75,76,77,78,79,80,81,82,83,84,85,86,87,88,89,90,91,92,93,94,95,96,97,98,99,100]
[7,5,9,8,5,9,5,8,3,9,6,12,6,4,4,3,8,11,5,12,7,12,6,2,8,4,7,3,5,5,8,9,6,9,5,4,9,4,6,6,10,6,5,9,6,9,7,5,7,7,7,3,3,6,8,10,2,8,4,4,10,3,9,5,10,9,9,2,9,12,6,4,7,4,5,6]
